200
1000
165
164
164
164
164
164
163
162
161
161
160
159
158
158
158
158
157
157
156
156
156
156
155
155
153
153
152
152
152
151
151
151
150
149
148
148
148
147
147
147
146
145
145
144
144
143
142
142
142
142
142
140
139
139
139
138
137
136
135
135
133
133
133
132
132
132
132
132
131
131
130
128
128
127
127
127
127
126
125
125
123
123
123
122
122
122
121
121
121
121
119
119
118
117
117
117
117
116
116
115
115
114
114
113
113
111
111
111
111
110
110
109
109
109
108
108
108
108
106
106
105
104
103
103
102
102
101
98
98
98
98
98
97
97
97
96
95
95
94
93
92
92
91
91
90
90
89
87
87
87
86
85
85
85
84
84
83
83
82
82
81
81
80
79
78
78
78
78
77
77
77
77
76
76
76
76
75
75
73
72
71
71
70
69
67
67
66
66
66
64
64
63
62
61
61
61
59
59
58
57
